Route #1: 7 2 45 43 29 36 72 57
Route #2: 40 67 88 44
Route #3: 87 37 6 49 14
Route #4: 58 12 5
Route #5: 25 65 78 42 28
Route #6: 54 70 1
Route #7: 75 93
Route #8: 32 33 53 73 95 24
Route #9: 35 46 31
Route #10: 69 16 55 76
Route #11: 8 17
Route #12: 71 62 99 98 89
Route #13: 66 84 90 68
Route #14: 100 61 23
Route #15: 82 60 59
Route #16: 83 51 81
Route #17: 4 13 74
Route #18: 80 94 56 21
Route #19: 39 10 18
Route #20: 27 97 19
Route #21: 30 85 11 79
Route #22: 50 91 52
Route #23: 38 47 26 48 96 64 34
Route #24: 86 9 92
Route #25: 15 22 41 20
Route #26: 63 77 3
Cost 27591.0000
Time 16.0008